% File represents an instance of a Composite Structure problem to be solved by a CP framework
% Created on 2025-03-26 10:41:16.197
T = 50;
n = 9;
m = 12;
edges = [(1, 2),
(4, 5),
(8, 7),
(2, 3),
(5, 6),
(8, 9),
(4, 1),
(4, 7),
(5, 2),
(8, 5),
(6, 3),
(9, 6)];
counts = [|18, 6, 18, 4,
|16, 6, 16, 2,
|16, 4, 16, 2,
|20, 6, 20, 4,
|18, 6, 18, 2,
|16, 6, 16, 2,
|20, 4, 20, 2,
|20, 6, 20, 2,
|18, 6, 18, 2|];
